NAME : in_house_9_10
TYPE : TSP
DIMENSION : 9
EDGE_WEIGHT_TYPE : EXPLICIT
EDGE_WEIGHT_FORMAT : UPPER_ROW
COMMENT : INVERSION_SHIFT=1
EDGE_WEIGHT_SECTION
54
51
57
76
1
63
46
30
79
31
62
79
39
42
9
79
52
26
68
55
5
38
39
66
70
46
13
63
35
10
81
27
56
62
43
61
